
Gurobi 8.1.1 (win64, Python) logging started 01/12/20 22:39:15

Academic license - for non-commercial use only

Gurobi 8.1.1 (win64, Python) logging started 01/12/20 22:47:46

Academic license - for non-commercial use only

Gurobi 8.1.1 (win64, Python) logging started 01/12/20 23:16:31

Academic license - for non-commercial use only

Gurobi 8.1.1 (win64, Python) logging started 01/12/20 23:21:44

Academic license - for non-commercial use only

Gurobi 8.1.1 (win64, Python) logging started 01/13/20 08:32:01

Academic license - for non-commercial use only

Gurobi 8.1.1 (win64, Python) logging started 01/13/20 14:08:49

Academic license - for non-commercial use only

Gurobi 8.1.1 (win64, Python) logging started 01/13/20 14:32:05

Academic license - for non-commercial use only

Gurobi 8.1.1 (win64, Python) logging started 01/13/20 14:38:51

Academic license - for non-commercial use only

Gurobi 8.1.1 (win64, Python) logging started 01/13/20 14:45:33

Academic license - for non-commercial use only

Gurobi 8.1.1 (win64, Python) logging started 01/13/20 15:13:37

Academic license - for non-commercial use only

Gurobi 8.1.1 (win64, Python) logging started 01/13/20 15:16:42

Academic license - for non-commercial use only

Gurobi 8.1.1 (win64, Python) logging started 01/13/20 15:21:40

Academic license - for non-commercial use only

Gurobi 8.1.1 (win64, Python) logging started 01/13/20 15:23:23

Academic license - for non-commercial use only

Gurobi 8.1.1 (win64, Python) logging started 01/13/20 15:34:33

Academic license - for non-commercial use only

Gurobi 8.1.1 (win64, Python) logging started 01/13/20 15:44:35

Academic license - for non-commercial use only

Gurobi 8.1.1 (win64, Python) logging started 01/13/20 15:52:41

Academic license - for non-commercial use only

Gurobi 8.1.1 (win64, Python) logging started 01/13/20 17:53:14

Academic license - for non-commercial use only

Gurobi 8.1.1 (win64, Python) logging started 01/13/20 19:12:28

Academic license - for non-commercial use only

Gurobi 8.1.1 (win64, Python) logging started 01/13/20 19:41:05

Academic license - for non-commercial use only

Gurobi 8.1.1 (win64, Python) logging started 01/13/20 19:51:54

Academic license - for non-commercial use only

Gurobi 8.1.1 (win64, Python) logging started 01/15/20 00:12:52

Academic license - for non-commercial use only

Gurobi 8.1.1 (win64, Python) logging started 01/15/20 00:15:22

Academic license - for non-commercial use only

Gurobi 8.1.1 (win64, Python) logging started 01/15/20 04:01:02

Academic license - for non-commercial use only

Gurobi 8.1.1 (win64, Python) logging started 01/15/20 04:45:01

Academic license - for non-commercial use only

Gurobi 8.1.1 (win64, Python) logging started 01/15/20 04:45:17

Academic license - for non-commercial use only

Gurobi 8.1.1 (win64, Python) logging started 01/15/20 06:48:40

Academic license - for non-commercial use only

Gurobi 8.1.1 (win64, Python) logging started 01/15/20 07:23:32

Academic license - for non-commercial use only

Gurobi 8.1.1 (win64, Python) logging started 01/16/20 07:58:09

Academic license - for non-commercial use only

Gurobi 8.1.1 (win64, Python) logging started 01/16/20 08:04:11

Academic license - for non-commercial use only

Gurobi 8.1.1 (win64, Python) logging started 01/16/20 08:09:09

Academic license - for non-commercial use only

Gurobi 8.1.1 (win64, Python) logging started 01/16/20 08:52:29

Academic license - for non-commercial use only

Gurobi 8.1.1 (mac64, Python) logging started Tue Jan 21 06:27:42 2020

Academic license - for non-commercial use only

Gurobi 8.1.1 (win64, Python) logging started 01/22/20 19:23:55

Academic license - for non-commercial use only

Gurobi 8.1.1 (win64, Python) logging started 01/22/20 19:37:58

Academic license - for non-commercial use only

Gurobi 8.1.1 (win64, Python) logging started 01/22/20 19:44:57

Academic license - for non-commercial use only

Gurobi 8.1.1 (win64, Python) logging started 01/22/20 19:56:02

Academic license - for non-commercial use only

Gurobi 8.1.1 (win64, Python) logging started 01/23/20 03:02:52

Academic license - for non-commercial use only

Gurobi 8.1.1 (win64, Python) logging started 01/23/20 15:05:18

Academic license - for non-commercial use only

Gurobi 8.1.1 (win64, Python) logging started 01/23/20 19:17:31

Academic license - for non-commercial use only

Gurobi 8.1.1 (win64, Python) logging started 01/24/20 14:11:58

Academic license - for non-commercial use only

Gurobi 8.1.1 (win64, Python) logging started 01/24/20 14:20:08

Academic license - for non-commercial use only

Gurobi 8.1.1 (win64, Python) logging started 01/24/20 14:28:08

Academic license - for non-commercial use only

Gurobi 8.1.1 (win64, Python) logging started 01/26/20 13:25:01

Academic license - for non-commercial use only
